83360.84
259 201 200 199 198 197 205 206 196 195 207 194 208 209 210 211 212 213 260 261 262 263 214 192 215 216 217 193 218 219 220 221 258 222 223 224 225 226 227 228 229 230 231 232 233 234 235 236 237 238 239 240 241 242 243 244 245 246 247 248 249 250 251 252 253 254 255 256 257 264 985 984 983 982 981 980 986 987 988 989 990 991 992 993 994 995 996 997 998 999 1000 1001 1002 960 959 961 962 963 964 965 966 967 968 969 970 971 972 973 974 975 976 977 978 979 930 928 926 927 929 931 932 933 934 935 936 937 938 939 940 941 942 943 944 945 946 947 948 949 950 951 952 953 954 958 957 956 1048 1049 1050 1051 1047 1046 1045 1044 955 896 897 898 899 900 901 902 903 904 905 906 907 908 909 910 911 912 913 914 915 916 917 918 919 920 921 922 923 924 925 866 867 868 869 870 871 872 873 874 875 876 877 878 879 880 881 882 883 884 885 886 887 888 889 890 891 892 893 894 895 836 837 838 839 840 841 842 843 844 845 846 847 848 849 850 851 852 853 854 855 856 857 858 859 860 861 862 863 864 865 806 807 808 809 810 811 812 813 814 815 816 817 818 819 820 821 822 823 824 825 826 827 828 829 830 831 832 833 834 835 1043 1039 1040 1041 1037 1036 1035 1034 1038 1042 776 777 778 779 780 781 782 783 784 785 786 787 788 789 790 791 792 793 794 795 796 797 798 799 800 801 802 803 804 805 746 747 748 749 750 751 752 753 754 755 756 757 758 759 760 761 762 763 764 765 766 767 768 769 770 771 772 773 774 775 716 717 718 719 720 721 722 723 724 725 726 727 728 729 730 731 732 733 734 735 736 737 738 739 740 741 742 743 744 745 686 687 688 689 690 691 692 693 694 695 696 697 698 699 700 701 702 703 704 705 706 707 708 709 710 711 712 713 714 715 656 657 658 659 660 661 662 663 664 665 666 667 668 669 670 671 672 673 674 675 676 677 678 679 680 681 682 683 684 685 626 627 628 629 630 631 632 633 634 635 636 637 638 639 640 641 642 643 644 645 646 647 648 649 650 651 652 653 654 655 596 597 598 599 600 601 602 603 604 605 606 607 608 609 610 611 612 613 614 615 616 617 618 619 620 621 622 623 624 625 566 567 568 569 570 571 572 573 574 575 576 577 578 579 580 581 582 583 584 585 586 587 588 589 590 591 592 593 594 595 536 537 538 539 540 541 542 543 544 545 546 547 548 549 550 551 552 553 554 555 556 557 558 559 560 561 562 563 564 565 506 507 508 509 510 511 512 513 514 515 516 517 518 519 520 521 522 523 524 525 526 527 528 529 530 531 532 533 534 535 1005 1004 1003 1026 1029 1030 1033 1032 1031 1028 1027 1024 1023 1022 1025 1007 1008 1009 1006 1010 476 477 478 479 480 481 482 483 484 485 486 487 488 489 490 491 492 493 494 495 496 497 498 499 500 501 502 503 504 505 446 447 448 449 450 451 452 453 454 455 456 457 458 459 460 461 462 463 464 465 466 467 468 469 470 471 472 473 474 475 416 1011 1021 1013 1012 1017 1018 1019 1020 1016 1014 1015 295 294 293 292 291 290 289 288 287 286 285 284 283 282 281 280 279 278 277 276 275 274 273 272 271 270 269 268 267 266 325 324 323 322 321 320 319 318 317 316 315 314 313 312 311 310 309 308 307 306 305 304 303 302 301 300 299 298 297 296 355 354 353 352 351 350 349 348 347 346 345 344 343 342 341 340 339 338 337 336 335 334 333 332 331 330 329 328 327 326 385 384 383 382 381 380 379 378 377 376 375 374 373 372 371 370 369 368 367 366 365 364 363 362 361 360 359 358 357 356 415 414 417 418 419 413 412 411 410 409 408 407 406 405 404 403 427 425 423 421 420 422 424 426 428 429 430 431 432 433 434 435 436 437 438 439 393 395 397 399 401 402 400 398 396 394 392 391 390 388 386 387 389 440 441 442 443 444 445 1596 1643 1700 1748 1747 1699 1746 1745 1698 1697 1696 1744 1743 1742 1741 1693 1694 1695 1637 1636 1635 1588 1589 1590 1591 1638 1639 1592 1593 1640 1641 1642 1594 1595 1543 1542 1541 1540 1539 1538 1537 1536 1491 1492 1493 1494 1495 1496 1497 1498 1499 1451 1450 1449 1448 1447 1446 1445 1444 1443 1442 1398 1399 1400 1401 1402 1403 1404 1405 1406 1407 1356 1309 1308 1355 1354 1353 1307 1306 1305 1304 1352 1351 1350 1303 1302 1349 1348 1301 1300 1299 1298 1297 1296 1295 1294 1293 1292 1291 1290 1289 1288 1287 1286 1285 1284 1283 1282 1281 1280 1279 1278 1277 1276 1275 1274 1273 1272 1271 1270 1317 1318 1319 1320 1321 1322 1323 1324 1325 1326 1327 1328 1329 1330 1331 1332 1333 1334 1335 1336 1337 1338 1339 1340 1341 1342 1343 1344 1345 1346 1347 1397 1441 1396 1395 1394 1393 1392 1391 1390 1389 1388 1387 1386 1385 1384 1383 1382 1381 1380 1379 1378 1377 1376 1375 1374 1373 1372 1371 1370 1369 1368 1367 1412 1413 1414 1415 1416 1417 1418 1419 1420 1421 1422 1423 1424 1425 1426 1427 1428 1429 1430 1431 1432 1433 1434 1435 1436 1437 1438 1439 1440 1487 1486 1485 1484 1528 1529 1530 1531 1532 1533 1488 1489 1490 1534 1535 1587 1586 1634 1633 1632 1585 1584 1631 1630 1583 1582 1629 1628 1627 1626 1625 1624 1623 1622 1621 1620 1619 1618 1617 1616 1615 1614 1613 1612 1611 1610 1609 1608 1607 1560 1561 1562 1563 1564 1565 1566 1567 1568 1569 1570 1571 1572 1573 1574 1575 1576 1577 1578 1579 1580 1581 1527 1483 1482 1526 1525 1481 1480 1524 1523 1522 1479 1478 1477 1521 1520 1519 1476 1475 1474 1518 1517 1516 1473 1472 1471 1515 1514 1513 1470 1469 1468 1512 1511 1510 1467 1466 1465 1509 1508 1464 1463 1462 1461 1460 1459 1504 1505 1506 1507 1559 1606 1605 1558 1557 1556 1604 1603 1649 1655 1660 1661 1662 1663 1664 1665 1666 1667 1668 1669 1670 1671 1672 1673 1674 1675 1676 1677 1678 1679 1680 1681 1682 1683 1684 1685 1686 1687 1688 1689 1690 1691 1692 1740 1739 1738 1737 1736 1735 1734 1733 1732 1731 1730 1729 1728 1727 1726 1725 1724 1723 1722 1721 1720 1719 1718 1717 1716 1715 1714 1713 1712 1711 1710 1709 1708 1707 1706 1705 1701 1704 1750 1753 1749 1754 1757 1760 1764 1768 1769 1813 1770 1763 1762 1755 1756 1759 1771 1772 1773 1774 1775 1776 1777 1778 1779 1780 1781 1782 1783 1784 1785 1786 1830 1787 1788 1789 1790 1791 1792 1793 1794 1795 1796 1797 1798 1799 1800 1801 1802 1803 1804 1805 1806 1807 1808 1809 1810 1854 1853 1852 1851 1850 1849 265 1848 1847 1846 1845 1844 1843 1842 1841 1840 1839 1838 1837 1836 1835 1834 1873 1833 1832 1831 1872 1871 1855 1829 1870 1869 1828 1827 1826 1868 1867 1825 1824 1823 1866 1865 1822 1821 1864 1820 1819 1856 1863 1818 1817 1816 1862 1861 1815 1814 1860 1859 1858 1812 1767 1059 1811 1056 1857 1055 1054 1052 1053 1058 1062 1061 1060 1057 1766 1765 1761 1758 1752 1751 1703 1702 1657 1656 1652 1651 1646 1645 1599 1598 1552 1551 1547 1500 1546 1550 1553 1597 1600 1644 1647 1650 1653 1658 1659 1654 1648 1602 1601 1554 1555 1548 1549 1545 1544 1503 1502 1501 1457 1458 1456 1455 1453 1454 1411 1410 1409 1365 1408 1452 1066 1065 1064 1063 1067 1068 1069 1070 1362 1361 1358 1357 1313 1310 1312 1311 1265 1264 1260 1263 1266 1267 1314 1359 1363 1366 1364 1360 1316 1315 1268 1269 1262 1261 1258 1259 1255 1254 1253 1252 1251 1250 1249 1248 1247 1246 1245 1244 1243 1242 1241 1240 1239 1238 1237 1236 1235 1234 1233 1232 1231 1230 1229 1228 1227 1226 1225 1224 1223 1222 1221 1220 1219 1218 1217 1216 1215 1214 1213 1212 1211 1210 1209 1208 1207 1206 1205 1204 1203 1202 1201 1200 1199 1198 1197 1196 1195 1194 1193 1192 1191 1190 1189 1188 1187 1186 1185 1184 1183 1182 1181 1180 1179 1178 1177 1176 1175 1174 1173 1256 1257 1172 1170 1171 1169 1168 1127 1126 1125 1080 1081 1082 1128 1129 1130 1131 1132 1133 1134 1135 1136 1137 1138 1139 1140 1141 1142 1143 1144 1145 1146 1147 1148 1149 1150 1151 1152 1153 1154 1155 1156 1157 1158 1159 1160 1161 1162 1163 1164 1165 1166 1167 1122 1121 1120 1119 1118 1117 1116 1115 1114 1113 1112 1111 1110 1109 1108 1107 1106 1105 1104 1103 1102 1101 1100 1099 1098 1097 1096 1095 1094 1093 1092 1091 1090 1089 1088 1087 1086 1085 1084 1083 1075 1074 1071 1891 1892 1893 1894 1895 1896 1897 1898 1899 1900 1901 1902 1903 1904 1905 1906 1907 1908 1909 1910 1911 1912 1913 1914 1915 1916 1917 1918 1919 1920 1921 1922 1923 1924 1925 1926 1927 1928 1929 1930 1977 1976 1975 1974 1973 1972 1971 1970 1969 1968 1967 1966 1965 1964 1963 1962 1961 1960 1959 1958 1957 1956 1955 1954 1953 1952 1951 1950 1949 1948 1947 1946 1945 1944 1943 1942 1941 1940 1939 1938 1890 1889 1888 1936 1937 1983 1982 1935 1931 1887 1881 1880 1072 1076 1078 1123 1124 1079 1077 1073 1879 1882 1877 1876 1875 1874 1878 1885 1884 1883 1886 1932 1933 1980 1979 1934 1978 1981 1990 1991 1992 1993 1994 1995 1996 1997 1998 1999 2000 2001 2002 2003 2004 2005 2006 2007 2008 2009 2010 2011 2012 2013 2014 2015 2016 2017 2018 2019 2020 2021 2022 2023 2024 2025 2026 2027 2028 2029 2030 2031 2032 2079 2078 2077 2076 2075 2074 2073 2072 2071 2070 2069 2068 2067 2066 2065 2064 2063 2062 2061 2060 2059 2058 2057 2056 2055 2054 2053 2052 2051 2050 2049 2048 2047 2046 2045 2044 2043 2042 2041 2040 2039 2085 2084 2038 2037 2080 2036 2033 1989 1987 1984 1985 1986 1988 2034 2035 2081 2082 2087 2083 2086 2089 2093 2094 2095 2096 2097 2098 2099 2100 2101 2102 0 1 2 3 4 5 6 7 8 9 10 11 12 13 14 15 16 17 18 19 20 21 22 23 24 25 26 27 28 29 30 31 32 77 76 75 74 73 72 71 70 69 68 67 66 65 64 63 62 61 60 59 58 57 56 55 54 53 52 51 50 49 48 47 46 45 44 43 42 41 40 39 38 37 84 83 36 35 81 80 78 2090 2091 2088 2092 33 34 79 82 86 87 88 89 136 137 138 191 204 203 202 190 92 90 85 91 93 94 95 96 97 98 99 100 101 102 103 104 105 106 107 108 109 110 111 112 113 114 115 116 117 118 119 120 121 122 123 124 125 126 127 128 129 130 131 132 133 134 135 183 182 181 180 179 178 177 176 175 174 173 172 171 170 169 168 167 166 165 164 163 162 161 160 159 158 157 156 155 154 153 184 185 152 151 150 186 187 149 148 147 146 145 144 143 142 141 140 139 189 188